============================[ Problem Statistics ]=============================
|                                                                             |
|  Number of variables:          2114                                         |
|  Number of clauses:            5254                                         |
|  Parse time:                   0.00 s                                       |
|  Eliminated clauses:           0.05 Mb                                      |
|  Simplification time:          0.01 s                                       |
|                                                                             |
===============================================================================
Solved by simplification
restarts              : 0
conflicts             : 0              (0 /sec)
decisions             : 0              ( nan % random) (0 /sec)
propagations          : 741            (68044 /sec)
conflict literals     : 0              ( nan % deleted)
Memory used           : 1.55 MB
CPU time              : 0.01089 s

UNSATISFIABLE
